\* The Production and Inventory Problem *\
Minimize
Total_Cost: 5 Lp_x_1,1 + 8.5 Lp_x_1,2 + 4.5 Lp_x_10,1 + 7 Lp_x_10,2
 + 4.5 Lp_x_11,1 + 7 Lp_x_11,2 + 4.5 Lp_x_12,1 + 7 Lp_x_12,2 + 5 Lp_x_2,1
 + 8.5 Lp_x_2,2 + 5 Lp_x_3,1 + 8.5 Lp_x_3,2 + 5 Lp_x_4,1 + 8.5 Lp_x_4,2
 + 5 Lp_x_5,1 + 8.5 Lp_x_5,2 + 4.5 Lp_x_6,1 + 7 Lp_x_6,2 + 4.5 Lp_x_7,1
 + 7 Lp_x_7,2 + 4.5 Lp_x_8,1 + 7 Lp_x_8,2 + 4.5 Lp_x_9,1 + 7 Lp_x_9,2
 + 0.4 Lp_y_1,1 + 0.8 Lp_y_1,2 + 0.4 Lp_y_10,1 + 0.8 Lp_y_10,2 + 0.4 Lp_y_11,1
 + 0.8 Lp_y_11,2 + 0.4 Lp_y_12,1 + 0.8 Lp_y_12,2 + 0.4 Lp_y_2,1 + 0.8 Lp_y_2,2
 + 0.4 Lp_y_3,1 + 0.8 Lp_y_3,2 + 0.4 Lp_y_4,1 + 0.8 Lp_y_4,2 + 0.4 Lp_y_5,1
 + 0.8 Lp_y_5,2 + 0.4 Lp_y_6,1 + 0.8 Lp_y_6,2 + 0.4 Lp_y_7,1 + 0.8 Lp_y_7,2
 + 0.4 Lp_y_8,1 + 0.8 Lp_y_8,2 + 0.4 Lp_y_9,1 + 0.8 Lp_y_9,2
Subject To
_C1: Lp_x_1,1 - Lp_y_1,1 = 10000
_C10: Lp_x_10,1 - Lp_y_10,1 = 100000
_C11: Lp_x_11,1 - Lp_y_11,1 = 100000
_C12: Lp_x_12,1 - Lp_y_12,1 = 100000
_C13: Lp_x_1,2 - Lp_y_1,2 = 50000
_C14: Lp_x_2,2 - Lp_y_2,2 = 50000
_C15: Lp_x_3,2 - Lp_y_3,2 = 15000
_C16: Lp_x_4,2 - Lp_y_4,2 = 15000
_C17: Lp_x_5,2 - Lp_y_5,2 = 15000
_C18: Lp_x_6,2 - Lp_y_6,2 = 15000
_C19: Lp_x_7,2 - Lp_y_7,2 = 15000
_C2: Lp_x_2,1 - Lp_y_2,1 = 10000
_C20: Lp_x_8,2 - Lp_y_8,2 = 15000
_C21: Lp_x_9,2 - Lp_y_9,2 = 15000
_C22: Lp_x_10,2 - Lp_y_10,2 = 50000
_C23: Lp_x_11,2 - Lp_y_11,2 = 50000
_C24: Lp_x_12,2 - Lp_y_12,2 = 50000
_C25: Lp_x_1,1 + Lp_x_1,2 <= 120000
_C26: Lp_x_2,1 + Lp_x_2,2 <= 120000
_C27: Lp_x_3,1 + Lp_x_3,2 <= 120000
_C28: Lp_x_4,1 + Lp_x_4,2 <= 120000
_C29: Lp_x_5,1 + Lp_x_5,2 <= 120000
_C3: Lp_x_3,1 - Lp_y_3,1 = 10000
_C30: Lp_x_6,1 + Lp_x_6,2 <= 120000
_C31: Lp_x_7,1 + Lp_x_7,2 <= 120000
_C32: Lp_x_8,1 + Lp_x_8,2 <= 120000
_C33: Lp_x_9,1 + Lp_x_9,2 <= 120000
_C34: Lp_x_10,1 + Lp_x_10,2 <= 150000
_C35: Lp_x_11,1 + Lp_x_11,2 <= 150000
_C36: Lp_x_12,1 + Lp_x_12,2 <= 150000
_C37: 2 Lp_y_1,1 + 4 Lp_y_1,2 <= 150000
_C38: 2 Lp_y_2,1 + 4 Lp_y_2,2 <= 150000
_C39: 2 Lp_y_3,1 + 4 Lp_y_3,2 <= 150000
_C4: Lp_x_4,1 - Lp_y_4,1 = 10000
_C40: 2 Lp_y_4,1 + 4 Lp_y_4,2 <= 150000
_C41: 2 Lp_y_5,1 + 4 Lp_y_5,2 <= 150000
_C42: 2 Lp_y_6,1 + 4 Lp_y_6,2 <= 150000
_C43: 2 Lp_y_7,1 + 4 Lp_y_7,2 <= 150000
_C44: 2 Lp_y_8,1 + 4 Lp_y_8,2 <= 150000
_C45: 2 Lp_y_9,1 + 4 Lp_y_9,2 <= 150000
_C46: 2 Lp_y_10,1 + 4 Lp_y_10,2 <= 150000
_C47: 2 Lp_y_11,1 + 4 Lp_y_11,2 <= 150000
_C48: 2 Lp_y_12,1 + 4 Lp_y_12,2 <= 150000
_C5: Lp_x_5,1 - Lp_y_5,1 = 30000
_C6: Lp_x_6,1 - Lp_y_6,1 = 30000
_C7: Lp_x_7,1 - Lp_y_7,1 = 30000
_C8: Lp_x_8,1 - Lp_y_8,1 = 30000
_C9: Lp_x_9,1 - Lp_y_9,1 = 30000
Bounds
0 <= Lp_x_1,1
0 <= Lp_x_1,2
0 <= Lp_x_10,1
0 <= Lp_x_10,2
0 <= Lp_x_11,1
0 <= Lp_x_11,2
0 <= Lp_x_12,1
0 <= Lp_x_12,2
0 <= Lp_x_2,1
0 <= Lp_x_2,2
0 <= Lp_x_3,1
0 <= Lp_x_3,2
0 <= Lp_x_4,1
0 <= Lp_x_4,2
0 <= Lp_x_5,1
0 <= Lp_x_5,2
0 <= Lp_x_6,1
0 <= Lp_x_6,2
0 <= Lp_x_7,1
0 <= Lp_x_7,2
0 <= Lp_x_8,1
0 <= Lp_x_8,2
0 <= Lp_x_9,1
0 <= Lp_x_9,2
0 <= Lp_y_1,1
0 <= Lp_y_1,2
0 <= Lp_y_10,1
0 <= Lp_y_10,2
0 <= Lp_y_11,1
0 <= Lp_y_11,2
0 <= Lp_y_12,1
0 <= Lp_y_12,2
0 <= Lp_y_2,1
0 <= Lp_y_2,2
0 <= Lp_y_3,1
0 <= Lp_y_3,2
0 <= Lp_y_4,1
0 <= Lp_y_4,2
0 <= Lp_y_5,1
0 <= Lp_y_5,2
0 <= Lp_y_6,1
0 <= Lp_y_6,2
0 <= Lp_y_7,1
0 <= Lp_y_7,2
0 <= Lp_y_8,1
0 <= Lp_y_8,2
0 <= Lp_y_9,1
0 <= Lp_y_9,2
Generals
Lp_x_1,1
Lp_x_1,2
Lp_x_10,1
Lp_x_10,2
Lp_x_11,1
Lp_x_11,2
Lp_x_12,1
Lp_x_12,2
Lp_x_2,1
Lp_x_2,2
Lp_x_3,1
Lp_x_3,2
Lp_x_4,1
Lp_x_4,2
Lp_x_5,1
Lp_x_5,2
Lp_x_6,1
Lp_x_6,2
Lp_x_7,1
Lp_x_7,2
Lp_x_8,1
Lp_x_8,2
Lp_x_9,1
Lp_x_9,2
Lp_y_1,1
Lp_y_1,2
Lp_y_10,1
Lp_y_10,2
Lp_y_11,1
Lp_y_11,2
Lp_y_12,1
Lp_y_12,2
Lp_y_2,1
Lp_y_2,2
Lp_y_3,1
Lp_y_3,2
Lp_y_4,1
Lp_y_4,2
Lp_y_5,1
Lp_y_5,2
Lp_y_6,1
Lp_y_6,2
Lp_y_7,1
Lp_y_7,2
Lp_y_8,1
Lp_y_8,2
Lp_y_9,1
Lp_y_9,2
End
